0 16 4 20 19 19 19 18 16 16 13 14 12 13 11 12 54 8 6 10 13 14 15 16 17 16 14 13 4 19 18 11 7 6 4 8 12 15 10 10 13 17 18 17 19 10 10 10 15 7
18 0 16 15 13 12 12 11 9 10 7 8 6 7 9 9 45 12 12 12 11 12 12 6 5 4 5 6 14 16 13 9 11 14 15 12 9 11 8 16 11 19 19 14 17 17 16 16 13 16
5 14 0 17 23 23 22 21 19 19 15 15 13 13 10 10 51 6 3 8 10 12 13 15 15 14 12 14 2 16 14 8 5 4 2 10 12 12 8 13 16 19 20 17 20 10 11 9 17 8
18 14 17 0 23 24 23 22 20 21 18 19 17 18 21 19 45 18 12 11 8 6 4 16 16 14 16 18 14 11 8 9 13 15 15 22 21 8 10 23 23 22 23 25 28 16 18 15 22 15
21 13 25 24 0 4 6 9 9 9 10 12 11 11 15 14 44 17 22 22 20 21 22 15 15 13 12 14 23 26 23 19 21 23 23 17 13 21 18 20 16 23 24 16 20 21 21 23 17 22
21 13 22 24 4 0 5 6 8 8 10 13 10 11 14 14 45 17 21 21 20 21 21 15 14 13 12 13 23 25 23 19 20 23 21 19 13 21 18 20 15 23 24 17 20 21 20 23 17 21
21 12 23 23 6 5 0 6 7 7 8 11 9 10 13 13 43 16 20 20 19 20 20 14 14 12 10 12 21 24 22 18 19 22 20 18 12 20 16 18 14 21 23 15 19 20 19 22 16 20
19 10 20 21 9 9 8 0 5 6 6 9 8 8 12 11 42 14 18 19 17 18 19 12 12 10 9 11 20 23 20 16 17 20 20 16 11 18 14 17 13 20 21 15 18 18 17 20 14 19
17 9 18 20 8 8 7 6 0 1 5 8 7 8 10 9 44 12 17 17 15 16 17 11 10 9 7 9 18 21 18 14 16 19 16 14 9 16 13 15 11 18 19 14 17 17 15 18 12 17
17 8 18 20 9 8 7 6 1 0 5 8 7 9 10 9 43 12 17 17 15 16 17 11 10 9 7 9 18 21 19 14 16 19 16 14 9 16 13 15 11 18 19 14 16 16 16 18 13 17
14 7 19 18 8 8 7 6 5 5 0 2 1 3 7 6 44 9 15 15 14 15 15 9 8 7 5 6 16 19 17 12 14 16 16 10 6 15 12 13 8 16 16 11 14 14 13 15 10 14
17 7 17 18 10 10 9 8 7 7 2 0 3 4 7 7 45 10 16 15 14 15 16 9 9 7 6 7 17 20 17 13 14 17 17 10 9 15 12 13 9 16 17 12 15 15 14 16 11 15
13 6 16 18 10 9 9 7 6 6 1 2 0 2 6 6 44 9 15 15 13 14 15 9 8 7 5 5 15 18 16 12 13 15 15 9 6 14 11 12 8 15 16 11 13 13 12 15 10 14
13 8 14 19 11 10 10 9 7 7 5 6 4 0 4 3 51 6 15 17 14 15 16 10 9 8 4 2 14 22 18 13 14 13 12 8 4 16 12 11 6 13 14 9 12 12 11 13 8 12
13 8 14 19 11 11 10 9 7 8 4 5 3 2 0 3 48 6 16 16 15 15 16 10 9 8 4 1 15 21 18 14 14 12 12 8 5 16 13 12 7 14 16 10 13 13 12 14 9 13
9 11 11 21 15 15 14 13 12 11 8 9 7 6 3 0 56 2 13 18 16 17 18 14 12 11 6 5 12 22 19 15 11 9 9 8 9 18 14 13 11 18 19 14 17 15 15 14 12 12
53 43 53 43 45 44 44 44 42 42 43 46 44 45 49 49 0 50 47 45 44 42 40 39 41 41 46 47 48 50 46 44 48 50 49 51 47 43 45 54 50 56 56 50 53 50 51 49 51 49
8 12 7 18 17 17 16 15 13 14 10 11 9 8 5 6 52 0 9 15 14 14 15 13 14 12 10 7 9 20 17 14 8 7 6 7 8 15 11 12 10 17 18 13 15 14 13 13 11 11
6 10 7 12 20 20 19 18 17 17 15 15 14 14 15 14 48 12 0 4 7 8 9 12 12 10 12 15 1 13 10 5 3 7 5 12 16 9 4 13 16 16 16 20 24 9 10 7 17 6
12 11 12 10 20 19 19 18 17 17 15 15 14 14 17 16 47 15 6 0 3 6 10 12 12 10 13 15 7 10 8 5 8 12 10 15 17 8 6 15 16 15 16 20 23 9 10 8 15 8
13 10 13 8 20 19 19 17 16 16 14 15 13 13 17 15 45 14 7 3 0 3 7 12 12 9 12 14 8 8 5 5 8 11 11 15 16 6 6 15 16 16 17 21 23 10 11 8 16 9
16 13 15 5 22 22 21 20 19 19 17 18 16 16 19 18 44 17 9 6 4 0 5 14 15 12 15 17 11 7 4 8 11 14 14 17 19 5 8 17 18 18 19 23 25 12 13 10 18 11
13 10 12 8 19 19 18 17 16 16 14 15 12 13 16 15 43 14 7 6 4 3 0 12 11 9 12 14 9 10 7 5 8 11 10 16 16 3 6 17 17 17 18 21 23 11 12 10 17 10
17 5 16 15 15 14 14 13 11 12 10 10 8 9 12 12 40 14 13 12 11 12 13 0 3 5 7 10 16 17 14 10 13 13 14 15 11 11 9 18 13 21 22 17 19 18 18 17 15 17
16 5 15 15 14 14 14 13 12 12 10 10 8 8 11 11 41 13 12 12 11 11 12 5 0 2 7 9 13 16 13 9 10 13 13 14 11 11 8 17 13 20 21 16 18 17 18 16 14 16
15 4 14 14 13 13 13 12 9 9 7 8 7 7 10 10 42 13 11 11 10 11 12 5 5 0 6 7 13 15 13 9 10 12 13 13 10 11 8 16 12 19 20 15 17 17 17 16 14 16
15 7 14 17 12 11 11 10 8 8 6 9 7 5 5 5 46 8 15 14 12 13 14 8 7 6 0 2 15 18 15 11 13 13 12 12 8 13 10 14 10 19 18 13 16 16 15 17 12 16
14 6 13 18 12 12 12 10 9 9 6 7 5 3 4 4 48 7 14 15 13 14 16 8 8 7 2 0 14 20 16 12 12 13 11 10 7 14 11 13 9 16 17 12 15 14 13 16 11 15
4 12 5 15 21 21 20 19 18 17 16 16 15 15 15 11 48 7 1 5 8 9 10 13 13 11 14 15 0 14 11 6 3 6 3 10 15 9 6 12 14 17 17 19 22 8 9 6 16 5
18 16 19 11 25 26 25 24 22 22 20 21 19 19 22 21 51 20 12 10 8 9 11 17 18 16 18 20 14 0 4 11 14 17 18 19 22 11 12 19 20 20 21 25 28 14 15 13 20 13
17 15 17 6 24 24 23 22 21 21 19 20 17 18 21 20 48 19 11 9 7 8 7 16 17 14 16 19 13 6 0 10 13 16 16 18 20 10 10 19 20 19 20 25 28 13 15 12 19 12
11 9 10 9 18 17 17 16 14 15 12 13 11 12 15 13 45 13 5 6 5 5 6 10 10 8 10 13 7 10 7 0 6 9 8 17 15 5 2 18 16 20 21 19 22 12 13 10 18 12
7 10 6 13 20 20 19 18 17 17 15 15 13 14 14 13 48 10 2 7 9 9 10 12 12 10 12 14 3 16 11 5 0 6 4 13 16 10 4 15 18 19 19 21 24 11 12 9 19 8
6 11 5 14 20 20 20 19 17 17 15 16 13 14 13 11 49 9 5 10 9 10 11 12 13 10 13 13 4 15 12 8 3 0 3 13 15 11 5 15 16 22 22 20 23 12 13 11 18 10
5 11 4 15 19 17 16 16 15 15 12 13 11 11 8 7 50 4 7 11 10 11 12 12 12 11 10 9 6 16 13 9 5 4 0 8 10 11 8 14 11 19 19 14 18 12 12 10 13 9
9 13 11 24 16 16 15 14 13 13 10 10 9 9 11 11 51 7 12 16 19 21 22 15 14 13 12 11 12 21 20 17 15 13 12 0 7 21 17 7 5 13 13 8 11 11 10 10 7 9
14 10 16 22 14 13 13 11 10 10 8 8 6 7 8 9 49 10 17 21 17 18 19 12 12 11 10 8 16 26 20 16 17 15 14 8 0 18 15 11 7 16 17 10 12 12 11 14 8 15
15 11 14 8 21 20 20 19 17 18 16 16 14 14 18 17 43 16 8 8 6 3 5 13 13 11 13 15 10 11 8 5 10 13 12 20 17 0 6 21 19 23 24 22 25 13 14 11 21 15
9 8 8 10 17 17 16 15 14 14 12 12 10 11 14 13 46 13 5 7 6 7 8 9 9 7 9 12 6 11 9 2 4 8 6 15 14 7 0 18 15 20 21 18 21 14 15 13 17 11
12 14 14 25 17 17 16 15 13 14 11 12 10 10 12 12 52 11 14 18 21 23 24 16 15 14 12 12 13 23 22 19 16 16 14 5 7 22 19 0 5 13 13 10 13 10 9 11 6 10
13 13 15 24 16 16 15 14 13 13 10 10 9 9 11 11 52 12 13 17 15 21 22 15 14 13 11 11 12 20 18 18 15 16 13 8 7 21 17 4 0 7 8 9 12 6 5 7 5 8
17 18 19 20 21 21 20 19 17 17 14 16 13 14 15 15 56 17 16 13 14 17 18 20 19 18 16 15 16 20 16 21 19 20 17 12 11 17 21 9 9 0 3 11 14 8 8 11 6 12
22 22 23 24 25 24 24 23 21 22 19 20 17 18 19 20 59 21 17 16 17 20 21 24 23 22 20 19 20 24 20 20 23 25 22 17 15 21 22 13 13 4 0 15 18 13 13 13 10 17
19 16 21 27 17 17 16 17 16 16 13 14 12 13 14 14 51 16 22 25 24 24 25 18 18 16 15 14 21 31 26 22 23 20 20 13 10 23 21 14 10 15 15 0 4 15 14 17 10 18
21 18 22 29 20 19 19 19 18 18 15 16 14 14 16 16 55 17 24 26 25 26 26 20 20 18 17 16 23 30 27 24 24 22 21 14 12 25 22 16 12 17 17 3 0 17 16 19 12 20
10 18 12 20 21 21 21 19 18 18 15 16 14 15 16 16 56 14 8 13 10 13 17 20 19 18 16 16 7 18 11 13 10 13 10 10 12 16 12 7 7 10 10 14 17 0 2 3 9 4
11 17 13 22 21 21 20 19 17 17 14 15 13 14 15 16 52 15 10 14 17 18 19 19 19 18 16 15 9 19 13 15 12 14 11 10 11 19 14 8 8 9 9 14 17 1 0 4 9 5
9 18 11 18 21 20 20 19 17 18 15 15 13 14 15 16 54 12 7 8 10 14 16 19 19 17 16 15 6 16 15 11 9 11 9 8 12 15 11 7 9 13 14 16 18 3 4 0 10 2
16 14 18 24 17 17 16 15 14 14 11 12 9 10 11 12 52 13 16 20 15 21 22 16 15 14 12 11 15 21 18 21 18 18 17 9 7 25 20 8 4 7 8 8 10 9 8 10 0 11
7 16 10 20 20 19 19 18 16 16 13 14 12 13 14 15 54 11 6 10 13 16 15 18 17 16 14 14 5 16 18 11 8 10 8 7 12 15 10 7 11 14 14 16 18 4 5 3 13 0
